data/CVRPLIB/Vrp-Set-XML100/instances/XML100_1112_16.vrp
NAME : XML100_1112_16
COMMENT : Generated by Queiroga, Sadykov, Uchoa, and Vidal (2021)
TYPE : CVRP
DIMENSION : 101
EDGE_WEIGHT_TYPE : EUC_2D
CAPACITY : 7
NODE_COORD_SECTION
1    144  462 
2    83   127 
3    273  648 
4    266  139 
5    186  605 
6    365  784 
7    781  50  
8    861  952 
9    623  201 
10   384  990 
11   546  613 
12   858  385 
13   187  216 
14   715  41  
15   779  956 
16   698  447 
17   805  358 
18   512  496 
19   405  685 
20   376  95  
21   327  347 
22   103  856 
23   225  458 
24   337  717 
25   113  495 
26   529  701 
27   959  222 
28   584  933 
29   970  552 
30   377  48  
31   19   432 
32   703  844 
33   773  597 
34   735  990 
35   73   704 
36   261  133 
37   547  756 
38   61   942 
39   913  752 
40   894  231 
41   889  522 
42   576  693 
43   700  905 
44   213  931 
45   108  882 
46   679  94  
47   591  368 
48   730  475 
49   142  223 
50   672  793 
51   610  724 
52   639  820 
53   185  178 
54   904  885 
55   986  611 
56   236  463 
57   256  486 
58   839  296 
59   851  821 
60   86   665 
61   376  328 
62   309  796 
63   669  299 
64   481  444 
65   199  43  
66   462  297 
67   61   27  
68   372  853 
69   899  331 
70   549  846 
71   579  263 
72   268  700 
73   498  938 
74   967  602 
75   154  808 
76   511  915 
77   434  176 
78   576  260 
79   623  787 
80   641  286 
81   606  24  
82   130  764 
83   977  124 
84   342  443 
85   2    904 
86   453  498 
87   828  706 
88   154  6   
89   730  517 
90   206  937 
91   699  124 
92   109  535 
93   586  913 
94   518  575 
95   443  38  
96   713  93  
97   965  670 
98   425  14  
99   374  995 
100  507  575 
101  166  849 
DEMAND_SECTION
1    0   
2    1   
3    1   
4    1   
5    1   
6    1   
7    1   
8    1   
9    1   
10   1   
11   1   
12   1   
13   1   
14   1   
15   1   
16   1   
17   1   
18   1   
19   1   
20   1   
21   1   
22   1   
23   1   
24   1   
25   1   
26   1   
27   1   
28   1   
29   1   
30   1   
31   1   
32   1   
33   1   
34   1   
35   1   
36   1   
37   1   
38   1   
39   1   
40   1   
41   1   
42   1   
43   1   
44   1   
45   1   
46   1   
47   1   
48   1   
49   1   
50   1   
51   1   
52   1   
53   1   
54   1   
55   1   
56   1   
57   1   
58   1   
59   1   
60   1   
61   1   
62   1   
63   1   
64   1   
65   1   
66   1   
67   1   
68   1   
69   1   
70   1   
71   1   
72   1   
73   1   
74   1   
75   1   
76   1   
77   1   
78   1   
79   1   
80   1   
81   1   
82   1   
83   1   
84   1   
85   1   
86   1   
87   1   
88   1   
89   1   
90   1   
91   1   
92   1   
93   1   
94   1   
95   1   
96   1   
97   1   
98   1   
99   1   
100  1   
101  1   
DEPOT_SECTION
1
-1
EOF
