data/CVRPLIB/Vrp-Set-XML100/solutions/XML100_1112_16.sol
Route #1: 59 34 84 37 44 21 81
Route #2: 80 13 6 95 45 90 8
Route #3: 3 35 19 29 97 94 76
Route #4: 24 91 30
Route #5: 31 42 33 14 7 53 58
Route #6: 74 100 89 43 98 9 67
Route #7: 40 28 73 54 96 38 86
Route #8: 12 52 64 87 66 1 48
Route #9: 57 39 82 26 68 11 16
Route #10: 85 17 15 47 88 32 93
Route #11: 22 55 56 83 60 20
Route #12: 63 46 62 79 70 77 65
Route #13: 2 23 18 5 61 71 4
Route #14: 72 75 27 92 69 36 25
Route #15: 99 10 41 50 49 51 78
Cost 19017
